10J3M/DAT/10J3MULL-14.dat
10 3
21.2772 21.2772
5.7256 5.7256
4.221 4.221
15.6296 15.6296
25.7181 25.7181
22.8486 22.8486
37.8614 37.8614
1.5151 1.5151
7.9807 7.9807
0.1333 0.1333
47.6369