10J3M/SOL/10J3MULL-14.sol
solution status: optimal solution found
objective value:                     47.6368666666667
x#1#2                               0.459433885410988 	(obj:0)
x#1#3                               0.540566114589013 	(obj:0)
x#2#1                                               1 	(obj:0)
x#3#3                                               1 	(obj:0)
x#4#3                                               1 	(obj:0)
x#5#1                               0.677121041860272 	(obj:0)
x#5#3                               0.322878958139727 	(obj:0)
x#6#1                                               1 	(obj:0)
x#7#2                                               1 	(obj:0)
x#8#1                                               1 	(obj:0)
x#9#3                                               1 	(obj:0)
x#10#1                                              1 	(obj:0)
z                                    47.6368666666667 	(obj:1)
